(set-option :produce-models true)
(set-logic QF_LRA)
(set-info :notes | Strip-packing problem.|)
(declare-fun x0 () Real)
(declare-fun y0 () Real)
(declare-fun x1 () Real)
(declare-fun y1 () Real)
(declare-fun x2 () Real)
(declare-fun y2 () Real)
(declare-fun x3 () Real)
(declare-fun y3 () Real)
(declare-fun x4 () Real)
(declare-fun y4 () Real)
(declare-fun x5 () Real)
(declare-fun y5 () Real)
(declare-fun x6 () Real)
(declare-fun y6 () Real)
(declare-fun x7 () Real)
(declare-fun y7 () Real)
(declare-fun x8 () Real)
(declare-fun y8 () Real)
(declare-fun z () Real)
(declare-fun c () Real)
(assert (and (= c z) (and (>= x0 0) 
(and (>= y0 0) 
(and (>= x1 0) 
(and (>= y1 0) 
(and (>= x2 0) 
(and (>= y2 0) 
(and (>= x3 0) 
(and (>= y3 0) 
(and (>= x4 0) 
(and (>= y4 0) 
(and (>= x5 0) 
(and (>= y5 0) 
(and (>= x6 0) 
(and (>= y6 0) 
(and (>= x7 0) 
(and (>= y7 0) 
(and (>= x8 0) 
(and (>= y8 0) 
(and (>= z 0) 
(and (>= c 0) 
(and (<= (+ x0 0.5659318611) z) 
(and (<= 0.8238118957 y0) 
(and (<= y0 1.0) 
(and (<= x0 (- 3.5772776224 0.5659318611)) 
(and (>= x0 0) 
(and (<= (+ x1 0.980842892) z) 
(and (<= 0.567611161 y1) 
(and (<= y1 1.0) 
(and (<= x1 (- 3.5772776224 0.980842892)) 
(and (>= x1 0) 
(and (<= (+ x2 0.8560667786) z) 
(and (<= 0.5374677452 y2) 
(and (<= y2 1.0) 
(and (<= x2 (- 3.5772776224 0.8560667786)) 
(and (>= x2 0) 
(and (<= (+ x3 0.5468107715) z) 
(and (<= 0.5017277702 y3) 
(and (<= y3 1.0) 
(and (<= x3 (- 3.5772776224 0.5468107715)) 
(and (>= x3 0) 
(and (<= (+ x4 0.9614481607) z) 
(and (<= 0.3037756774 y4) 
(and (<= y4 1.0) 
(and (<= x4 (- 3.5772776224 0.9614481607)) 
(and (>= x4 0) 
(and (<= (+ x5 0.4530160957) z) 
(and (<= 0.2446831617 y5) 
(and (<= y5 1.0) 
(and (<= x5 (- 3.5772776224 0.4530160957)) 
(and (>= x5 0) 
(and (<= (+ x6 0.3283532359) z) 
(and (<= 0.2070487283 y6) 
(and (<= y6 1.0) 
(and (<= x6 (- 3.5772776224 0.3283532359)) 
(and (>= x6 0) 
(and (<= (+ x7 0.1491247482) z) 
(and (<= 0.1797800129 y7) 
(and (<= y7 1.0) 
(and (<= x7 (- 3.5772776224 0.1491247482)) 
(and (>= x7 0) 
(and (<= (+ x8 0.6276253192) z) 
(and (<= 0.1477113668 y8) 
(and (<= y8 1.0) 
(and (<= x8 (- 3.5772776224 0.6276253192)) 
(and (>= x8 0) 
(and (<= c 3.5772776224) 
(and (or (<= (+ x0 0.5659318611) x1) (or (<= (+ x1 0.980842892) x0) (or (>= (- y0 0.8238118957) y1) (or (>= (- y1 0.567611161) y0))))) 
(and (or (<= (+ x0 0.5659318611) x2) (or (<= (+ x2 0.8560667786) x0) (or (>= (- y0 0.8238118957) y2) (or (>= (- y2 0.5374677452) y0))))) 
(and (or (<= (+ x0 0.5659318611) x3) (or (<= (+ x3 0.5468107715) x0) (or (>= (- y0 0.8238118957) y3) (or (>= (- y3 0.5017277702) y0))))) 
(and (or (<= (+ x0 0.5659318611) x4) (or (<= (+ x4 0.9614481607) x0) (or (>= (- y0 0.8238118957) y4) (or (>= (- y4 0.3037756774) y0))))) 
(and (or (<= (+ x0 0.5659318611) x5) (or (<= (+ x5 0.4530160957) x0) (or (>= (- y0 0.8238118957) y5) (or (>= (- y5 0.2446831617) y0))))) 
(and (or (<= (+ x0 0.5659318611) x6) (or (<= (+ x6 0.3283532359) x0) (or (>= (- y0 0.8238118957) y6) (or (>= (- y6 0.2070487283) y0))))) 
(and (or (<= (+ x0 0.5659318611) x7) (or (<= (+ x7 0.1491247482) x0) (or (>= (- y0 0.8238118957) y7) (or (>= (- y7 0.1797800129) y0))))) 
(and (or (<= (+ x0 0.5659318611) x8) (or (<= (+ x8 0.6276253192) x0) (or (>= (- y0 0.8238118957) y8) (or (>= (- y8 0.1477113668) y0))))) 
(and (or (<= (+ x1 0.980842892) x2) (or (<= (+ x2 0.8560667786) x1) (or (>= (- y1 0.567611161) y2) (or (>= (- y2 0.5374677452) y1))))) 
(and (or (<= (+ x1 0.980842892) x3) (or (<= (+ x3 0.5468107715) x1) (or (>= (- y1 0.567611161) y3) (or (>= (- y3 0.5017277702) y1))))) 
(and (or (<= (+ x1 0.980842892) x4) (or (<= (+ x4 0.9614481607) x1) (or (>= (- y1 0.567611161) y4) (or (>= (- y4 0.3037756774) y1))))) 
(and (or (<= (+ x1 0.980842892) x5) (or (<= (+ x5 0.4530160957) x1) (or (>= (- y1 0.567611161) y5) (or (>= (- y5 0.2446831617) y1))))) 
(and (or (<= (+ x1 0.980842892) x6) (or (<= (+ x6 0.3283532359) x1) (or (>= (- y1 0.567611161) y6) (or (>= (- y6 0.2070487283) y1))))) 
(and (or (<= (+ x1 0.980842892) x7) (or (<= (+ x7 0.1491247482) x1) (or (>= (- y1 0.567611161) y7) (or (>= (- y7 0.1797800129) y1))))) 
(and (or (<= (+ x1 0.980842892) x8) (or (<= (+ x8 0.6276253192) x1) (or (>= (- y1 0.567611161) y8) (or (>= (- y8 0.1477113668) y1))))) 
(and (or (<= (+ x2 0.8560667786) x3) (or (<= (+ x3 0.5468107715) x2) (or (>= (- y2 0.5374677452) y3) (or (>= (- y3 0.5017277702) y2))))) 
(and (or (<= (+ x2 0.8560667786) x4) (or (<= (+ x4 0.9614481607) x2) (or (>= (- y2 0.5374677452) y4) (or (>= (- y4 0.3037756774) y2))))) 
(and (or (<= (+ x2 0.8560667786) x5) (or (<= (+ x5 0.4530160957) x2) (or (>= (- y2 0.5374677452) y5) (or (>= (- y5 0.2446831617) y2))))) 
(and (or (<= (+ x2 0.8560667786) x6) (or (<= (+ x6 0.3283532359) x2) (or (>= (- y2 0.5374677452) y6) (or (>= (- y6 0.2070487283) y2))))) 
(and (or (<= (+ x2 0.8560667786) x7) (or (<= (+ x7 0.1491247482) x2) (or (>= (- y2 0.5374677452) y7) (or (>= (- y7 0.1797800129) y2))))) 
(and (or (<= (+ x2 0.8560667786) x8) (or (<= (+ x8 0.6276253192) x2) (or (>= (- y2 0.5374677452) y8) (or (>= (- y8 0.1477113668) y2))))) 
(and (or (<= (+ x3 0.5468107715) x4) (or (<= (+ x4 0.9614481607) x3) (or (>= (- y3 0.5017277702) y4) (or (>= (- y4 0.3037756774) y3))))) 
(and (or (<= (+ x3 0.5468107715) x5) (or (<= (+ x5 0.4530160957) x3) (or (>= (- y3 0.5017277702) y5) (or (>= (- y5 0.2446831617) y3))))) 
(and (or (<= (+ x3 0.5468107715) x6) (or (<= (+ x6 0.3283532359) x3) (or (>= (- y3 0.5017277702) y6) (or (>= (- y6 0.2070487283) y3))))) 
(and (or (<= (+ x3 0.5468107715) x7) (or (<= (+ x7 0.1491247482) x3) (or (>= (- y3 0.5017277702) y7) (or (>= (- y7 0.1797800129) y3))))) 
(and (or (<= (+ x3 0.5468107715) x8) (or (<= (+ x8 0.6276253192) x3) (or (>= (- y3 0.5017277702) y8) (or (>= (- y8 0.1477113668) y3))))) 
(and (or (<= (+ x4 0.9614481607) x5) (or (<= (+ x5 0.4530160957) x4) (or (>= (- y4 0.3037756774) y5) (or (>= (- y5 0.2446831617) y4))))) 
(and (or (<= (+ x4 0.9614481607) x6) (or (<= (+ x6 0.3283532359) x4) (or (>= (- y4 0.3037756774) y6) (or (>= (- y6 0.2070487283) y4))))) 
(and (or (<= (+ x4 0.9614481607) x7) (or (<= (+ x7 0.1491247482) x4) (or (>= (- y4 0.3037756774) y7) (or (>= (- y7 0.1797800129) y4))))) 
(and (or (<= (+ x4 0.9614481607) x8) (or (<= (+ x8 0.6276253192) x4) (or (>= (- y4 0.3037756774) y8) (or (>= (- y8 0.1477113668) y4))))) 
(and (or (<= (+ x5 0.4530160957) x6) (or (<= (+ x6 0.3283532359) x5) (or (>= (- y5 0.2446831617) y6) (or (>= (- y6 0.2070487283) y5))))) 
(and (or (<= (+ x5 0.4530160957) x7) (or (<= (+ x7 0.1491247482) x5) (or (>= (- y5 0.2446831617) y7) (or (>= (- y7 0.1797800129) y5))))) 
(and (or (<= (+ x5 0.4530160957) x8) (or (<= (+ x8 0.6276253192) x5) (or (>= (- y5 0.2446831617) y8) (or (>= (- y8 0.1477113668) y5))))) 
(and (or (<= (+ x6 0.3283532359) x7) (or (<= (+ x7 0.1491247482) x6) (or (>= (- y6 0.2070487283) y7) (or (>= (- y7 0.1797800129) y6))))) 
(and (or (<= (+ x6 0.3283532359) x8) (or (<= (+ x8 0.6276253192) x6) (or (>= (- y6 0.2070487283) y8) (or (>= (- y8 0.1477113668) y6))))) 
(and (or (<= (+ x7 0.1491247482) x8) (or (<= (+ x8 0.6276253192) x7) (or (>= (- y7 0.1797800129) y8) (or (>= (- y8 0.1477113668) y7))))) ))))))))))))))))))))))))))))))))))))))))))))))))))))))))))))))))))))))))))))))))))))))))))))))))))))))))
(minimize c)
(check-sat)
(get-objectives)
(exit)
